40
     5    46    67    20    44    44    93     3    82    31    78    23    83     3    34    40    36    12    55    21    60    61    11    32     1     7    49    44    35    59    95    32    63    80    55    71    17    88    11    43
     7     1     6     7     5     6     7     1     3     3     1     8     5     9     7     7     4     3     8     9    10     4     2     3     4    10     8     2     3     7     9     9     4     1     3     7     1    10     1     1
   732   933   691   670   499   629   561   816   810   910   964   509   546   494   490   412   802  1034   911   780   677   691   363   404  1008   520   728   736   854   812   819   684   539   553   983   733   895   691   446   515
